\ENCODING=ISO-8859-1
\Problem name: TSP

Minimize
 obj1: 353.764713419333 x1 + 883.003149339342 x2 + 1721.63367950739 x3
       + 1713.04647928908 x4 + 1241.92625637037 x5 + 655.482991589414 x6
       + 13.6928989844993 x7 + 794.975210549675 x8 + 694.166674771202 x9
       + 318.296107806549 x10 + 634.038485521583 x11 + 774.268848004249 x12
       + 659.482713909106 x13 + 117.32810560277 x14 + 549.280407501209 x15
       + 710.556870394917 x16 + 1371.32428420471 x17 + 1917.37296702586 x18
       + 1351.17542669182 x19 + 572.873915341957 x20 + 348.20342369431 x21
       + 797.393121128509 x22 + 752.398568713276 x23 + 659.862317450125 x24
       + 831.248423184061 x25 + 858.158066570895 x26 + 552.861027764012 x27
       + 298.569668394024 x28 + 214.263009663548 x29 + 1002.11451982645 x30
       + 1313.59979282198 x31 + 1855.03787499485 x32 + 1234.82366968905 x33
       + 870.391814301882 x34 + 1470.57177191116 x35 + 411.663100263517 x36
       + 966.761893652101 x37 + 661.058709345487 x38 + 461.674955525273 x39
       + 231.006575572356 x40 + 925.192864537338 x41 + 745.946456389461 x42
       + 563.084115013743 x43 + 857.010711341224 x44 + 1172.58911017262 x45
       + 1717.66083622631 x46 + 1120.91775701659 x47 + 1332.01766213307 x48
       + 1940.63008978852 x49 + 1503.19555534348 x50 + 1294.31383119831 x51
       + 1228.31237259015 x52 + 1629.75371537715 x53 + 1173.53025952631 x54
       + 614.138653073202 x55 + 1372.98637885676 x56 + 1720.67815722275 x57
       + 1158.83783111542 x58 + 1322.15953794097 x59 + 1419.68401061455 x60
       + 1257.29059330568 x61 + 1217.97814781601 x62 + 1495.01707637077 x63
       + 1741.98141197068 x64 + 1705.0782427292 x65 + 788.40186180161 x66
       + 1254.61398650155 x67 + 556.307698267318 x68 + 1724.18905228412 x69
       + 1184.90216150916 x70 + 1477.84518074145 x71 + 1652.90649940039 x72
       + 1896.53462216695 x73 + 1183.40819647596 x74 + 1264.42168533794 x75
       + 663.5334386329 x76 + 237.474770028833 x77 + 1306.74025905319 x78
       + 893.083285991155 x79 + 1287.89002135342 x80 + 1405.47937507925 x81
       + 1121.48401269868 x82 + 542.121249133232 x83 + 489.89232095557 x84
       + 805.762974245624 x85 + 683.023470238991 x86 + 320.026025865118 x87
       + 626.589125096228 x88 + 763.942412022461 x89 + 646.792790239315 x90
       + 123.595614687025 x91 + 546.146457845585 x92 + 1486.81496301248 x93
       + 945.599637483935 x94 + 1382.88249768048 x95 + 1566.54473798539 x96
       + 1349.24970421049 x97 + 696.612261709101 x98 + 726.022451004193 x99
       + 619.953075587325 x100 + 250.397234618649 x101 + 107.809987834436 x102
       + 290.472341530498 x103 + 791.435600349496 x104 + 909.944372902089 x105
       + 439.883347760682 x106 + 652.230674050129 x107 + 744.961226219488 x108
       + 419.620558993902 x109 + 864.292111706823 x110 + 230.139991052681 x111
       + 514.686487849999 x112 + 748.984758639021 x113 + 1029.84500030561 x114
       + 384.188687464163 x115 + 878.020650098301 x116 + 1016.32703429447 x117
       + 714.616891102107 x118 + 658.435542814589 x119 + 467.26775558576 x120
Subject To
 c1:  x1 + x2 + x3 + x4 + x5 + x6 + x7 + x8 + x9 + x10 + x11 + x12 + x13 + x14
      + x15  = 2
 c2:  x1 + x16 + x17 + x18 + x19 + x20 + x21 + x22 + x23 + x24 + x25 + x26
      + x27 + x28 + x29  = 2
 c3:  x2 + x16 + x30 + x31 + x32 + x33 + x34 + x35 + x36 + x37 + x38 + x39
      + x40 + x41 + x42  = 2
 c4:  x3 + x17 + x30 + x43 + x44 + x45 + x46 + x47 + x48 + x49 + x50 + x51
      + x52 + x53 + x54  = 2
 c5:  x4 + x18 + x31 + x43 + x55 + x56 + x57 + x58 + x59 + x60 + x61 + x62
      + x63 + x64 + x65  = 2
 c6:  x5 + x19 + x32 + x44 + x55 + x66 + x67 + x68 + x69 + x70 + x71 + x72
      + x73 + x74 + x75  = 2
 c7:  x6 + x20 + x33 + x45 + x56 + x66 + x76 + x77 + x78 + x79 + x80 + x81
      + x82 + x83 + x84  = 2
 c8:  x7 + x21 + x34 + x46 + x57 + x67 + x76 + x85 + x86 + x87 + x88 + x89
      + x90 + x91 + x92  = 2
 c9:  x8 + x22 + x35 + x47 + x58 + x68 + x77 + x85 + x93 + x94 + x95 + x96
      + x97 + x98 + x99  = 2
 c10: x9 + x23 + x36 + x48 + x59 + x69 + x78 + x86 + x93 + x100 + x101 + x102
      + x103 + x104 + x105  = 2
 c11: x10 + x24 + x37 + x49 + x60 + x70 + x79 + x87 + x94 + x100 + x106 + x107
      + x108 + x109 + x110  = 2
 c12: x11 + x25 + x38 + x50 + x61 + x71 + x80 + x88 + x95 + x101 + x106 + x111
      + x112 + x113 + x114  = 2
 c13: x12 + x26 + x39 + x51 + x62 + x72 + x81 + x89 + x96 + x102 + x107 + x111
      + x115 + x116 + x117  = 2
 c14: x13 + x27 + x40 + x52 + x63 + x73 + x82 + x90 + x97 + x103 + x108 + x112
      + x115 + x118 + x119  = 2
 c15: x14 + x28 + x41 + x53 + x64 + x74 + x83 + x91 + x98 + x104 + x109 + x113
      + x116 + x118 + x120  = 2
 c16: x15 + x29 + x42 + x54 + x65 + x75 + x84 + x92 + x99 + x105 + x110 + x114
      + x117 + x119 + x120  = 2
Bounds
 0 <= x1 <= 1
 0 <= x2 <= 1
 0 <= x3 <= 1
 0 <= x4 <= 1
 0 <= x5 <= 1
 0 <= x6 <= 1
 0 <= x7 <= 1
 0 <= x8 <= 1
 0 <= x9 <= 1
 0 <= x10 <= 1
 0 <= x11 <= 1
 0 <= x12 <= 1
 0 <= x13 <= 1
 0 <= x14 <= 1
 0 <= x15 <= 1
 0 <= x16 <= 1
 0 <= x17 <= 1
 0 <= x18 <= 1
 0 <= x19 <= 1
 0 <= x20 <= 1
 0 <= x21 <= 1
 0 <= x22 <= 1
 0 <= x23 <= 1
 0 <= x24 <= 1
 0 <= x25 <= 1
 0 <= x26 <= 1
 0 <= x27 <= 1
 0 <= x28 <= 1
 0 <= x29 <= 1
 0 <= x30 <= 1
 0 <= x31 <= 1
 0 <= x32 <= 1
 0 <= x33 <= 1
 0 <= x34 <= 1
 0 <= x35 <= 1
 0 <= x36 <= 1
 0 <= x37 <= 1
 0 <= x38 <= 1
 0 <= x39 <= 1
 0 <= x40 <= 1
 0 <= x41 <= 1
 0 <= x42 <= 1
 0 <= x43 <= 1
 0 <= x44 <= 1
 0 <= x45 <= 1
 0 <= x46 <= 1
 0 <= x47 <= 1
 0 <= x48 <= 1
 0 <= x49 <= 1
 0 <= x50 <= 1
 0 <= x51 <= 1
 0 <= x52 <= 1
 0 <= x53 <= 1
 0 <= x54 <= 1
 0 <= x55 <= 1
 0 <= x56 <= 1
 0 <= x57 <= 1
 0 <= x58 <= 1
 0 <= x59 <= 1
 0 <= x60 <= 1
 0 <= x61 <= 1
 0 <= x62 <= 1
 0 <= x63 <= 1
 0 <= x64 <= 1
 0 <= x65 <= 1
 0 <= x66 <= 1
 0 <= x67 <= 1
 0 <= x68 <= 1
 0 <= x69 <= 1
 0 <= x70 <= 1
 0 <= x71 <= 1
 0 <= x72 <= 1
 0 <= x73 <= 1
 0 <= x74 <= 1
 0 <= x75 <= 1
 0 <= x76 <= 1
 0 <= x77 <= 1
 0 <= x78 <= 1
 0 <= x79 <= 1
 0 <= x80 <= 1
 0 <= x81 <= 1
 0 <= x82 <= 1
 0 <= x83 <= 1
 0 <= x84 <= 1
 0 <= x85 <= 1
 0 <= x86 <= 1
 0 <= x87 <= 1
 0 <= x88 <= 1
 0 <= x89 <= 1
 0 <= x90 <= 1
 0 <= x91 <= 1
 0 <= x92 <= 1
 0 <= x93 <= 1
 0 <= x94 <= 1
 0 <= x95 <= 1
 0 <= x96 <= 1
 0 <= x97 <= 1
 0 <= x98 <= 1
 0 <= x99 <= 1
 0 <= x100 <= 1
 0 <= x101 <= 1
 0 <= x102 <= 1
 0 <= x103 <= 1
 0 <= x104 <= 1
 0 <= x105 <= 1
 0 <= x106 <= 1
 0 <= x107 <= 1
 0 <= x108 <= 1
 0 <= x109 <= 1
 0 <= x110 <= 1
 0 <= x111 <= 1
 0 <= x112 <= 1
 0 <= x113 <= 1
 0 <= x114 <= 1
 0 <= x115 <= 1
 0 <= x116 <= 1
 0 <= x117 <= 1
 0 <= x118 <= 1
 0 <= x119 <= 1
 0 <= x120 <= 1
Binaries
 x1  x2  x3  x4  x5  x6  x7  x8  x9  x10  x11  x12  x13  x14  x15  x16  x17 
 x18  x19  x20  x21  x22  x23  x24  x25  x26  x27  x28  x29  x30  x31  x32 
 x33  x34  x35  x36  x37  x38  x39  x40  x41  x42  x43  x44  x45  x46  x47 
 x48  x49  x50  x51  x52  x53  x54  x55  x56  x57  x58  x59  x60  x61  x62 
 x63  x64  x65  x66  x67  x68  x69  x70  x71  x72  x73  x74  x75  x76  x77 
 x78  x79  x80  x81  x82  x83  x84  x85  x86  x87  x88  x89  x90  x91  x92 
 x93  x94  x95  x96  x97  x98  x99  x100  x101  x102  x103  x104  x105  x106 
 x107  x108  x109  x110  x111  x112  x113  x114  x115  x116  x117  x118  x119 
 x120 
End
